(set-logic HORN)
(declare-fun invariant (Real Real Real Real Real Real Real Real Real Real Real Real Real Real Real Real Real Real Real Real Real Real Real Real Real Real Real Real Real Real Bool Bool Bool Bool Bool Bool Bool Bool Real Real Real Real Real Real Real Real) Bool)

;; Initial state
(assert
  (forall ((state.cx!0!0 Real) (state.cx!0!1 Real) (state.cx!0!2 Real) (state.cx!1!0 Real) (state.cx!1!1 Real) (state.cx!1!2 Real) (state.cx!2!0 Real) (state.cx!2!1 Real) (state.cx!2!2 Real) (state.cx!3!0 Real) (state.cx!3!1 Real) (state.cx!3!2 Real) (state.cx!4!0 Real) (state.cx!4!1 Real) (state.cx!4!2 Real) (state.cy!0!0 Real) (state.cy!0!1 Real) (state.cy!0!2 Real) (state.cy!1!0 Real) (state.cy!1!1 Real) (state.cy!1!2 Real) (state.cy!2!0 Real) (state.cy!2!1 Real) (state.cy!2!2 Real) (state.cy!3!0 Real) (state.cy!3!1 Real) (state.cy!3!2 Real) (state.cy!4!0 Real) (state.cy!4!1 Real) (state.cy!4!2 Real) (state.good_p!0 Bool) (state.good_p!1 Bool) (state.good_p!2 Bool) (state.good_p!3 Bool) (state.good_p!4 Bool) (state.good_r!0 Bool) (state.good_r!1 Bool) (state.good_r!2 Bool) (state.v!0 Real) (state.v!1 Real) (state.v!2 Real) (state.v!3 Real) (state.v!4 Real) (state.round Real) (state.source Real) (state.val Real))
    (=> (let ((l0 (= |state.round| 0))) (let ((l1 (= |state.cx!0!0| 0))) (let ((l2 (= |state.cx!0!1| 0))) (let ((l3 (= |state.cx!0!2| 0))) (let ((l4 (= |state.cx!1!0| 0))) (let ((l5 (= |state.cx!1!1| 0))) (let ((l6 (= |state.cx!1!2| 0))) (let ((l7 (= |state.cx!2!0| 0))) (let ((l8 (= |state.cx!2!1| 0))) (let ((l9 (= |state.cx!2!2| 0))) (let ((l10 (= |state.cx!3!0| 0))) (let ((l11 (= |state.cx!3!1| 0))) (let ((l12 (= |state.cx!3!2| 0))) (let ((l13 (= |state.cx!4!0| 0))) (let ((l14 (= |state.cx!4!1| 0))) (let ((l15 (= |state.cx!4!2| 0))) (let ((l16 (= |state.cy!0!0| 0))) (let ((l17 (= |state.cy!0!1| 0))) (let ((l18 (= |state.cy!0!2| 0))) (let ((l19 (= |state.cy!1!0| 0))) (let ((l20 (= |state.cy!1!1| 0))) (let ((l21 (= |state.cy!1!2| 0))) (let ((l22 (= |state.cy!2!0| 0))) (let ((l23 (= |state.cy!2!1| 0))) (let ((l24 (= |state.cy!2!2| 0))) (let ((l25 (= |state.cy!3!0| 0))) (let ((l26 (= |state.cy!3!1| 0))) (let ((l27 (= |state.cy!3!2| 0))) (let ((l28 (= |state.cy!4!0| 0))) (let ((l29 (= |state.cy!4!1| 0))) (let ((l30 (= |state.cy!4!2| 0))) (let ((l31 (= |state.source| 1))) (let ((l32 (= |state.source| 2))) (let ((l33 (= |state.source| 3))) (let ((l34 (= |state.source| 4))) (let ((l35 (= |state.source| 5))) (let ((l36 (or l31 l32 l33 l34 l35))) (let ((l37 (= |state.val| 0))) (let ((l38 (not l37))) (let ((l39 (and |state.good_p!0| |state.good_p!1| |state.good_p!2| |state.good_p!3| |state.good_p!4|))) (let ((l40 (not |state.good_r!0|))) (let ((l41 (and l40 |state.good_r!1| |state.good_r!2|))) (let ((l42 (not |state.good_r!1|))) (let ((l43 (and l42 |state.good_r!0| |state.good_r!2|))) (let ((l44 (not |state.good_r!2|))) (let ((l45 (and l44 |state.good_r!0| |state.good_r!1|))) (let ((l46 (or l41 l43 l45))) (let ((l47 (and l0 l1 l2 l3 l4 l5 l6 l7 l8 l9 l10 l11 l12 l13 l14 l15 l16 l17 l18 l19 l20 l21 l22 l23 l24 l25 l26 l27 l28 l29 l30 l36 l38 l39 l46))) l47))))))))))))))))))))))))))))))))))))))))))))))))
        (invariant state.cx!0!0 state.cx!0!1 state.cx!0!2 state.cx!1!0 state.cx!1!1 state.cx!1!2 state.cx!2!0 state.cx!2!1 state.cx!2!2 state.cx!3!0 state.cx!3!1 state.cx!3!2 state.cx!4!0 state.cx!4!1 state.cx!4!2 state.cy!0!0 state.cy!0!1 state.cy!0!2 state.cy!1!0 state.cy!1!1 state.cy!1!2 state.cy!2!0 state.cy!2!1 state.cy!2!2 state.cy!3!0 state.cy!3!1 state.cy!3!2 state.cy!4!0 state.cy!4!1 state.cy!4!2 state.good_p!0 state.good_p!1 state.good_p!2 state.good_p!3 state.good_p!4 state.good_r!0 state.good_r!1 state.good_r!2 state.v!0 state.v!1 state.v!2 state.v!3 state.v!4 state.round state.source state.val))
  )
)

;; Transition relation
(assert
  (forall ((state.cx!0!0 Real) (next.cx!0!0 Real) (state.cx!0!1 Real) (next.cx!0!1 Real) (state.cx!0!2 Real) (next.cx!0!2 Real) (state.cx!1!0 Real) (next.cx!1!0 Real) (state.cx!1!1 Real) (next.cx!1!1 Real) (state.cx!1!2 Real) (next.cx!1!2 Real) (state.cx!2!0 Real) (next.cx!2!0 Real) (state.cx!2!1 Real) (next.cx!2!1 Real) (state.cx!2!2 Real) (next.cx!2!2 Real) (state.cx!3!0 Real) (next.cx!3!0 Real) (state.cx!3!1 Real) (next.cx!3!1 Real) (state.cx!3!2 Real) (next.cx!3!2 Real) (state.cx!4!0 Real) (next.cx!4!0 Real) (state.cx!4!1 Real) (next.cx!4!1 Real) (state.cx!4!2 Real) (next.cx!4!2 Real) (state.cy!0!0 Real) (next.cy!0!0 Real) (state.cy!0!1 Real) (next.cy!0!1 Real) (state.cy!0!2 Real) (next.cy!0!2 Real) (state.cy!1!0 Real) (next.cy!1!0 Real) (state.cy!1!1 Real) (next.cy!1!1 Real) (state.cy!1!2 Real) (next.cy!1!2 Real) (state.cy!2!0 Real) (next.cy!2!0 Real) (state.cy!2!1 Real) (next.cy!2!1 Real) (state.cy!2!2 Real) (next.cy!2!2 Real) (state.cy!3!0 Real) (next.cy!3!0 Real) (state.cy!3!1 Real) (next.cy!3!1 Real) (state.cy!3!2 Real) (next.cy!3!2 Real) (state.cy!4!0 Real) (next.cy!4!0 Real) (state.cy!4!1 Real) (next.cy!4!1 Real) (state.cy!4!2 Real) (next.cy!4!2 Real) (state.good_p!0 Bool) (next.good_p!0 Bool) (state.good_p!1 Bool) (next.good_p!1 Bool) (state.good_p!2 Bool) (next.good_p!2 Bool) (state.good_p!3 Bool) (next.good_p!3 Bool) (state.good_p!4 Bool) (next.good_p!4 Bool) (state.good_r!0 Bool) (next.good_r!0 Bool) (state.good_r!1 Bool) (next.good_r!1 Bool) (state.good_r!2 Bool) (next.good_r!2 Bool) (state.v!0 Real) (next.v!0 Real) (state.v!1 Real) (next.v!1 Real) (state.v!2 Real) (next.v!2 Real) (state.v!3 Real) (next.v!3 Real) (state.v!4 Real) (next.v!4 Real) (state.round Real) (next.round Real) (state.source Real) (next.source Real) (state.val Real) (next.val Real))
    (=> (and (invariant state.cx!0!0 state.cx!0!1 state.cx!0!2 state.cx!1!0 state.cx!1!1 state.cx!1!2 state.cx!2!0 state.cx!2!1 state.cx!2!2 state.cx!3!0 state.cx!3!1 state.cx!3!2 state.cx!4!0 state.cx!4!1 state.cx!4!2 state.cy!0!0 state.cy!0!1 state.cy!0!2 state.cy!1!0 state.cy!1!1 state.cy!1!2 state.cy!2!0 state.cy!2!1 state.cy!2!2 state.cy!3!0 state.cy!3!1 state.cy!3!2 state.cy!4!0 state.cy!4!1 state.cy!4!2 state.good_p!0 state.good_p!1 state.good_p!2 state.good_p!3 state.good_p!4 state.good_r!0 state.good_r!1 state.good_r!2 state.v!0 state.v!1 state.v!2 state.v!3 state.v!4 state.round state.source state.val)
             (let ((l0 (= |next.source| |state.source|))) (let ((l1 (= |next.val| |state.val|))) (let ((l2 (= |state.round| 0))) (let ((l3 (not |state.good_p!0|))) (let ((l4 (= 1 |state.source|))) (let ((l5 (not l4))) (let ((l6 (= |next.cx!0!0| |state.val|))) (let ((l7 (= |next.cx!0!1| |state.val|))) (let ((l8 (= |next.cx!0!2| |state.val|))) (let ((l9 (and l6 l7 l8))) (let ((l10 (or l3 l5 l9))) (let ((l11 (not |state.good_p!1|))) (let ((l12 (= 2 |state.source|))) (let ((l13 (not l12))) (let ((l14 (= |next.cx!1!0| |state.val|))) (let ((l15 (= |next.cx!1!1| |state.val|))) (let ((l16 (= |next.cx!1!2| |state.val|))) (let ((l17 (and l14 l15 l16))) (let ((l18 (or l11 l13 l17))) (let ((l19 (not |state.good_p!2|))) (let ((l20 (= 3 |state.source|))) (let ((l21 (not l20))) (let ((l22 (= |next.cx!2!0| |state.val|))) (let ((l23 (= |next.cx!2!1| |state.val|))) (let ((l24 (= |next.cx!2!2| |state.val|))) (let ((l25 (and l22 l23 l24))) (let ((l26 (or l19 l21 l25))) (let ((l27 (not |state.good_p!3|))) (let ((l28 (= 4 |state.source|))) (let ((l29 (not l28))) (let ((l30 (= |next.cx!3!0| |state.val|))) (let ((l31 (= |next.cx!3!1| |state.val|))) (let ((l32 (= |next.cx!3!2| |state.val|))) (let ((l33 (and l30 l31 l32))) (let ((l34 (or l27 l29 l33))) (let ((l35 (not |state.good_p!4|))) (let ((l36 (= 5 |state.source|))) (let ((l37 (not l36))) (let ((l38 (= |next.cx!4!0| |state.val|))) (let ((l39 (= |next.cx!4!1| |state.val|))) (let ((l40 (= |next.cx!4!2| |state.val|))) (let ((l41 (and l38 l39 l40))) (let ((l42 (or l35 l37 l41))) (let ((l43 (= |next.cx!0!0| 0))) (let ((l44 (= |next.cx!0!1| 0))) (let ((l45 (= |next.cx!0!2| 0))) (let ((l46 (and l43 l44 l45))) (let ((l47 (or l3 l4 l46))) (let ((l48 (= |next.cx!1!0| 0))) (let ((l49 (= |next.cx!1!1| 0))) (let ((l50 (= |next.cx!1!2| 0))) (let ((l51 (and l48 l49 l50))) (let ((l52 (or l11 l12 l51))) (let ((l53 (= |next.cx!2!0| 0))) (let ((l54 (= |next.cx!2!1| 0))) (let ((l55 (= |next.cx!2!2| 0))) (let ((l56 (and l53 l54 l55))) (let ((l57 (or l19 l20 l56))) (let ((l58 (= |next.cx!3!0| 0))) (let ((l59 (= |next.cx!3!1| 0))) (let ((l60 (= |next.cx!3!2| 0))) (let ((l61 (and l58 l59 l60))) (let ((l62 (or l27 l28 l61))) (let ((l63 (= |next.cx!4!0| 0))) (let ((l64 (= |next.cx!4!1| 0))) (let ((l65 (= |next.cx!4!2| 0))) (let ((l66 (and l63 l64 l65))) (let ((l67 (or l35 l36 l66))) (let ((l68 (and l10 l18 l26 l34 l42 l47 l52 l57 l62 l67))) (let ((l69 (= |next.round| 1))) (let ((l70 (= |next.cy!0!0| |state.cy!0!0|))) (let ((l71 (= |next.cy!0!1| |state.cy!0!1|))) (let ((l72 (= |next.cy!0!2| |state.cy!0!2|))) (let ((l73 (= |next.cy!1!0| |state.cy!1!0|))) (let ((l74 (= |next.cy!1!1| |state.cy!1!1|))) (let ((l75 (= |next.cy!1!2| |state.cy!1!2|))) (let ((l76 (= |next.cy!2!0| |state.cy!2!0|))) (let ((l77 (= |next.cy!2!1| |state.cy!2!1|))) (let ((l78 (= |next.cy!2!2| |state.cy!2!2|))) (let ((l79 (= |next.cy!3!0| |state.cy!3!0|))) (let ((l80 (= |next.cy!3!1| |state.cy!3!1|))) (let ((l81 (= |next.cy!3!2| |state.cy!3!2|))) (let ((l82 (= |next.cy!4!0| |state.cy!4!0|))) (let ((l83 (= |next.cy!4!1| |state.cy!4!1|))) (let ((l84 (= |next.cy!4!2| |state.cy!4!2|))) (let ((l85 (and l70 l71 l72 l73 l74 l75 l76 l77 l78 l79 l80 l81 l82 l83 l84))) (let ((l86 (= |next.good_p!0| |state.good_p!0|))) (let ((l87 (= |next.good_p!1| |state.good_p!1|))) (let ((l88 (= |next.good_p!2| |state.good_p!2|))) (let ((l89 (= |next.good_p!3| |state.good_p!3|))) (let ((l90 (= |next.good_p!4| |state.good_p!4|))) (let ((l91 (and l86 l87 l88 l89 l90))) (let ((l92 (= |next.good_r!0| |state.good_r!0|))) (let ((l93 (= |next.good_r!1| |state.good_r!1|))) (let ((l94 (= |next.good_r!2| |state.good_r!2|))) (let ((l95 (and l92 l93 l94))) (let ((l96 (= |next.v!0| |state.v!0|))) (let ((l97 (= |next.v!1| |state.v!1|))) (let ((l98 (= |next.v!2| |state.v!2|))) (let ((l99 (= |next.v!3| |state.v!3|))) (let ((l100 (= |next.v!4| |state.v!4|))) (let ((l101 (and l96 l97 l98 l99 l100))) (let ((l102 (and l2 l68 l69 l85 l91 l95 l101))) (let ((l103 (= |state.round| 1))) (let ((l104 (not |state.good_r!0|))) (let ((l105 (= |state.source| 5))) (let ((l106 (= |state.source| 4))) (let ((l107 (= |state.source| 3))) (let ((l108 (= |state.source| 2))) (let ((l109 (ite l108 |state.cx!1!0| |state.cx!0!0|))) (let ((l110 (ite l107 |state.cx!2!0| l109))) (let ((l111 (ite l106 |state.cx!3!0| l110))) (let ((l112 (ite l105 |state.cx!4!0| l111))) (let ((l113 (= |next.cy!0!0| l112))) (let ((l114 (or l104 l113))) (let ((l115 (= |next.cy!1!0| l112))) (let ((l116 (or l104 l115))) (let ((l117 (= |next.cy!2!0| l112))) (let ((l118 (or l104 l117))) (let ((l119 (= |next.cy!3!0| l112))) (let ((l120 (or l104 l119))) (let ((l121 (= |next.cy!4!0| l112))) (let ((l122 (or l104 l121))) (let ((l123 (not |state.good_r!1|))) (let ((l124 (ite l108 |state.cx!1!1| |state.cx!0!1|))) (let ((l125 (ite l107 |state.cx!2!1| l124))) (let ((l126 (ite l106 |state.cx!3!1| l125))) (let ((l127 (ite l105 |state.cx!4!1| l126))) (let ((l128 (= |next.cy!0!1| l127))) (let ((l129 (or l123 l128))) (let ((l130 (= |next.cy!1!1| l127))) (let ((l131 (or l123 l130))) (let ((l132 (= |next.cy!2!1| l127))) (let ((l133 (or l123 l132))) (let ((l134 (= |next.cy!3!1| l127))) (let ((l135 (or l123 l134))) (let ((l136 (= |next.cy!4!1| l127))) (let ((l137 (or l123 l136))) (let ((l138 (not |state.good_r!2|))) (let ((l139 (ite l108 |state.cx!1!2| |state.cx!0!2|))) (let ((l140 (ite l107 |state.cx!2!2| l139))) (let ((l141 (ite l106 |state.cx!3!2| l140))) (let ((l142 (ite l105 |state.cx!4!2| l141))) (let ((l143 (= |next.cy!0!2| l142))) (let ((l144 (or l138 l143))) (let ((l145 (= |next.cy!1!2| l142))) (let ((l146 (or l138 l145))) (let ((l147 (= |next.cy!2!2| l142))) (let ((l148 (or l138 l147))) (let ((l149 (= |next.cy!3!2| l142))) (let ((l150 (or l138 l149))) (let ((l151 (= |next.cy!4!2| l142))) (let ((l152 (or l138 l151))) (let ((l153 (and l114 l116 l118 l120 l122 l129 l131 l133 l135 l137 l144 l146 l148 l150 l152))) (let ((l154 (= |next.round| 2))) (let ((l155 (= |next.cx!0!0| |state.cx!0!0|))) (let ((l156 (= |next.cx!0!1| |state.cx!0!1|))) (let ((l157 (= |next.cx!0!2| |state.cx!0!2|))) (let ((l158 (= |next.cx!1!0| |state.cx!1!0|))) (let ((l159 (= |next.cx!1!1| |state.cx!1!1|))) (let ((l160 (= |next.cx!1!2| |state.cx!1!2|))) (let ((l161 (= |next.cx!2!0| |state.cx!2!0|))) (let ((l162 (= |next.cx!2!1| |state.cx!2!1|))) (let ((l163 (= |next.cx!2!2| |state.cx!2!2|))) (let ((l164 (= |next.cx!3!0| |state.cx!3!0|))) (let ((l165 (= |next.cx!3!1| |state.cx!3!1|))) (let ((l166 (= |next.cx!3!2| |state.cx!3!2|))) (let ((l167 (= |next.cx!4!0| |state.cx!4!0|))) (let ((l168 (= |next.cx!4!1| |state.cx!4!1|))) (let ((l169 (= |next.cx!4!2| |state.cx!4!2|))) (let ((l170 (and l155 l156 l157 l158 l159 l160 l161 l162 l163 l164 l165 l166 l167 l168 l169))) (let ((l171 (and l103 l153 l154 l170 l91 l95 l101))) (let ((l172 (= |state.round| 2))) (let ((l173 (= |state.cy!0!1| |state.cy!0!2|))) (let ((l174 (ite l173 2 0))) (let ((l175 (= l174 0))) (let ((l176 (ite l175 |state.cy!0!0| |state.cy!0!2|))) (let ((l177 (= |state.cy!0!2| l176))) (let ((l178 (ite l177 1 2))) (let ((l179 (= l178 0))) (let ((l180 (= |state.cy!0!1| l176))) (let ((l181 (- l178 1))) (let ((l182 (ite l180 l181 l178))) (let ((l183 (= l182 0))) (let ((l184 (= |state.cy!0!0| l176))) (let ((l185 (- l182 1))) (let ((l186 (ite l184 l185 l182))) (let ((l187 (= l186 0))) (let ((l188 (or l179 l183 l187))) (let ((l189 (ite l188 l176 0))) (let ((l190 (= |next.v!0| l189))) (let ((l191 (or l3 l190))) (let ((l192 (= |state.cy!1!1| |state.cy!1!2|))) (let ((l193 (ite l192 2 0))) (let ((l194 (= l193 0))) (let ((l195 (ite l194 |state.cy!1!0| |state.cy!1!2|))) (let ((l196 (= |state.cy!1!2| l195))) (let ((l197 (ite l196 1 2))) (let ((l198 (= l197 0))) (let ((l199 (= |state.cy!1!1| l195))) (let ((l200 (- l197 1))) (let ((l201 (ite l199 l200 l197))) (let ((l202 (= l201 0))) (let ((l203 (= |state.cy!1!0| l195))) (let ((l204 (- l201 1))) (let ((l205 (ite l203 l204 l201))) (let ((l206 (= l205 0))) (let ((l207 (or l198 l202 l206))) (let ((l208 (ite l207 l195 0))) (let ((l209 (= |next.v!1| l208))) (let ((l210 (or l11 l209))) (let ((l211 (= |state.cy!2!1| |state.cy!2!2|))) (let ((l212 (ite l211 2 0))) (let ((l213 (= l212 0))) (let ((l214 (ite l213 |state.cy!2!0| |state.cy!2!2|))) (let ((l215 (= |state.cy!2!2| l214))) (let ((l216 (ite l215 1 2))) (let ((l217 (= l216 0))) (let ((l218 (= |state.cy!2!1| l214))) (let ((l219 (- l216 1))) (let ((l220 (ite l218 l219 l216))) (let ((l221 (= l220 0))) (let ((l222 (= |state.cy!2!0| l214))) (let ((l223 (- l220 1))) (let ((l224 (ite l222 l223 l220))) (let ((l225 (= l224 0))) (let ((l226 (or l217 l221 l225))) (let ((l227 (ite l226 l214 0))) (let ((l228 (= |next.v!2| l227))) (let ((l229 (or l19 l228))) (let ((l230 (= |state.cy!3!1| |state.cy!3!2|))) (let ((l231 (ite l230 2 0))) (let ((l232 (= l231 0))) (let ((l233 (ite l232 |state.cy!3!0| |state.cy!3!2|))) (let ((l234 (= |state.cy!3!2| l233))) (let ((l235 (ite l234 1 2))) (let ((l236 (= l235 0))) (let ((l237 (= |state.cy!3!1| l233))) (let ((l238 (- l235 1))) (let ((l239 (ite l237 l238 l235))) (let ((l240 (= l239 0))) (let ((l241 (= |state.cy!3!0| l233))) (let ((l242 (- l239 1))) (let ((l243 (ite l241 l242 l239))) (let ((l244 (= l243 0))) (let ((l245 (or l236 l240 l244))) (let ((l246 (ite l245 l233 0))) (let ((l247 (= |next.v!3| l246))) (let ((l248 (or l27 l247))) (let ((l249 (= |state.cy!4!1| |state.cy!4!2|))) (let ((l250 (ite l249 2 0))) (let ((l251 (= l250 0))) (let ((l252 (ite l251 |state.cy!4!0| |state.cy!4!2|))) (let ((l253 (= |state.cy!4!2| l252))) (let ((l254 (ite l253 1 2))) (let ((l255 (= l254 0))) (let ((l256 (= |state.cy!4!1| l252))) (let ((l257 (- l254 1))) (let ((l258 (ite l256 l257 l254))) (let ((l259 (= l258 0))) (let ((l260 (= |state.cy!4!0| l252))) (let ((l261 (- l258 1))) (let ((l262 (ite l260 l261 l258))) (let ((l263 (= l262 0))) (let ((l264 (or l255 l259 l263))) (let ((l265 (ite l264 l252 0))) (let ((l266 (= |next.v!4| l265))) (let ((l267 (or l35 l266))) (let ((l268 (and l191 l210 l229 l248 l267))) (let ((l269 (= |next.round| 3))) (let ((l270 (and l172 l268 l269 l170 l85 l91 l95))) (let ((l271 (= |state.round| 3))) (let ((l272 (= |next.round| |state.round|))) (let ((l273 (and l271 l170 l85 l91 l95 l272 l101))) (let ((l274 (or l102 l171 l270 l273))) (let ((l275 (and l0 l1 l274))) l275))))))))))))))))))))))))))))))))))))))))))))))))))))))))))))))))))))))))))))))))))))))))))))))))))))))))))))))))))))))))))))))))))))))))))))))))))))))))))))))))))))))))))))))))))))))))))))))))))))))))))))))))))))))))))))))))))))))))))))))))))))))))))))))))))))))))))))))))))))
        )
        (invariant next.cx!0!0 next.cx!0!1 next.cx!0!2 next.cx!1!0 next.cx!1!1 next.cx!1!2 next.cx!2!0 next.cx!2!1 next.cx!2!2 next.cx!3!0 next.cx!3!1 next.cx!3!2 next.cx!4!0 next.cx!4!1 next.cx!4!2 next.cy!0!0 next.cy!0!1 next.cy!0!2 next.cy!1!0 next.cy!1!1 next.cy!1!2 next.cy!2!0 next.cy!2!1 next.cy!2!2 next.cy!3!0 next.cy!3!1 next.cy!3!2 next.cy!4!0 next.cy!4!1 next.cy!4!2 next.good_p!0 next.good_p!1 next.good_p!2 next.good_p!3 next.good_p!4 next.good_r!0 next.good_r!1 next.good_r!2 next.v!0 next.v!1 next.v!2 next.v!3 next.v!4 next.round next.source next.val)
    )
  )
)

;; Property
(assert
  (forall ((state.cx!0!0 Real) (state.cx!0!1 Real) (state.cx!0!2 Real) (state.cx!1!0 Real) (state.cx!1!1 Real) (state.cx!1!2 Real) (state.cx!2!0 Real) (state.cx!2!1 Real) (state.cx!2!2 Real) (state.cx!3!0 Real) (state.cx!3!1 Real) (state.cx!3!2 Real) (state.cx!4!0 Real) (state.cx!4!1 Real) (state.cx!4!2 Real) (state.cy!0!0 Real) (state.cy!0!1 Real) (state.cy!0!2 Real) (state.cy!1!0 Real) (state.cy!1!1 Real) (state.cy!1!2 Real) (state.cy!2!0 Real) (state.cy!2!1 Real) (state.cy!2!2 Real) (state.cy!3!0 Real) (state.cy!3!1 Real) (state.cy!3!2 Real) (state.cy!4!0 Real) (state.cy!4!1 Real) (state.cy!4!2 Real) (state.good_p!0 Bool) (state.good_p!1 Bool) (state.good_p!2 Bool) (state.good_p!3 Bool) (state.good_p!4 Bool) (state.good_r!0 Bool) (state.good_r!1 Bool) (state.good_r!2 Bool) (state.v!0 Real) (state.v!1 Real) (state.v!2 Real) (state.v!3 Real) (state.v!4 Real) (state.round Real) (state.source Real) (state.val Real))
    (=> (invariant state.cx!0!0 state.cx!0!1 state.cx!0!2 state.cx!1!0 state.cx!1!1 state.cx!1!2 state.cx!2!0 state.cx!2!1 state.cx!2!2 state.cx!3!0 state.cx!3!1 state.cx!3!2 state.cx!4!0 state.cx!4!1 state.cx!4!2 state.cy!0!0 state.cy!0!1 state.cy!0!2 state.cy!1!0 state.cy!1!1 state.cy!1!2 state.cy!2!0 state.cy!2!1 state.cy!2!2 state.cy!3!0 state.cy!3!1 state.cy!3!2 state.cy!4!0 state.cy!4!1 state.cy!4!2 state.good_p!0 state.good_p!1 state.good_p!2 state.good_p!3 state.good_p!4 state.good_r!0 state.good_r!1 state.good_r!2 state.v!0 state.v!1 state.v!2 state.v!3 state.v!4 state.round state.source state.val)
        (let ((l0 (= |state.source| 5))) (let ((l1 (= |state.source| 4))) (let ((l2 (= |state.source| 3))) (let ((l3 (= |state.source| 2))) (let ((l4 (ite l3 |state.good_p!1| |state.good_p!0|))) (let ((l5 (ite l2 |state.good_p!2| l4))) (let ((l6 (ite l1 |state.good_p!3| l5))) (let ((l7 (ite l0 |state.good_p!4| l6))) (let ((l8 (not l7))) (let ((l9 (< |state.round| 3))) (let ((l10 (not |state.good_p!0|))) (let ((l11 (= |state.v!0| |state.val|))) (let ((l12 (or l10 l11))) (let ((l13 (not |state.good_p!1|))) (let ((l14 (= |state.v!1| |state.val|))) (let ((l15 (or l13 l14))) (let ((l16 (not |state.good_p!2|))) (let ((l17 (= |state.v!2| |state.val|))) (let ((l18 (or l16 l17))) (let ((l19 (not |state.good_p!3|))) (let ((l20 (= |state.v!3| |state.val|))) (let ((l21 (or l19 l20))) (let ((l22 (not |state.good_p!4|))) (let ((l23 (= |state.v!4| |state.val|))) (let ((l24 (or l22 l23))) (let ((l25 (and l12 l15 l18 l21 l24))) (let ((l26 (or l8 l9 l25))) l26)))))))))))))))))))))))))))
    )
  )
)

;; Check the property
(check-sat)
